\ENCODING=ISO-8859-1
\Problem name: ilog.cplex

Minimize
 obj1: 109091 x1 + 99762 x2 + 107276 x3 + 99833 x4 + 101893 x5 + 106436 x6
       + 103817 x7 + 103030 x8 + 97703 x9 + 96860 x10 + 103331 x11 + 93284 x12
       + 92009 x13 + 106809 x14 + 93578 x15 + 93044 x16 + 103099 x17
       + 99007 x18 + 107735 x19 + 100044 x20 + 108912 x21 + 90074 x22
       + 98302 x23 + 100443 x24 + 109344 x25 + 101995 x26 + 90316 x27
       + 98268 x28 + 106872 x29 + 96114 x30 + 98371 x31 + 107499 x32
       + 105546 x33 + 94448 x34 + 109458 x35 + 102648 x36 + 101229 x37
       + 90419 x38 + 106800 x39 + 93895 x40 + 94436 x41 + 99149 x42 + 98587 x43
       + 103618 x44 + 101200 x45 + 96031 x46 + 99972 x47 + 92581 x48
       + 107080 x49 + 101557 x50 + 96633 x51 + 96127 x52 + 104801 x53
       + 90226 x54 + 93933 x55 + 103349 x56 + 96925 x57 + 91860 x58
       + 106902 x59 + 105551 x60 + 94226 x61 + 91395 x62 + 91875 x63
       + 93830 x64 + 103320 x65 + 93838 x66 + 93513 x67 + 104119 x68
       + 105737 x69 + 104218 x70 + 103135 x71 + 92052 x72 + 109843 x73
       + 92160 x74 + 96348 x75 + 109446 x76 + 98134 x77 + 96711 x78 + 97487 x79
       + 107260 x80 + 107310 x81 + 105740 x82 + 93025 x83 + 106590 x84
       + 106658 x85 + 101205 x86 + 96527 x87 + 93282 x88 + 109940 x89
       + 93437 x90 + 105997 x91 + 95969 x92 + 94929 x93 + 104830 x94
       + 91202 x95 + 94857 x96 + 104268 x97 + 106110 x98 + 95899 x99
       + 91750 x100 + 101515 x101 + 96854 x102 + 97911 x103 + 90538 x104
       + 97030 x105 + 96000 x106 + 98587 x107 + 91804 x108 + 99787 x109
       + 107777 x110 + 92427 x111 + 95192 x112 + 93248 x113 + 93848 x114
       + 97528 x115 + 108857 x116 + 96115 x117 + 93392 x118 + 107968 x119
       + 106543 x120 + 109788 x121 + 96502 x122 + 102009 x123 + 108753 x124
       + 105210 x125 + 92935 x126 + 96324 x127 + 93635 x128 + 95026 x129
       + 96716 x130 + 108050 x131 + 95364 x132 + 102699 x133 + 109731 x134
       + 106318 x135 + 93989 x136 + 94997 x137 + 96016 x138 + 100212 x139
       + 103241 x140 + 96797 x141 + 95349 x142 + 104628 x143 + 100548 x144
       + 105575 x145 + 99533 x146 + 97404 x147 + 100644 x148 + 98821 x149
       + 104388 x150 + 101176 x151 + 96419 x152 + 109497 x153 + 99397 x154
       + 90668 x155 + 97408 x156 + 102181 x157 + 106496 x158 + 98895 x159
       + 93674 x160 + 95684 x161 + 109688 x162 + 94275 x163 + 100817 x164
       + 106699 x165 + 107939 x166 + 104682 x167 + 100477 x168 + 93426 x169
       + 95271 x170 + 94207 x171 + 99923 x172 + 98152 x173 + 103982 x174
       + 93712 x175 + 94182 x176 + 103392 x177 + 99624 x178 + 107226 x179
       + 104652 x180 + 109265 x181 + 92400 x182 + 101707 x183 + 108734 x184
       + 90999 x185 + 99118 x186 + 101567 x187 + 93604 x188 + 93885 x189
       + 103919 x190 + 96967 x191 + 92623 x192 + 108674 x193 + 102895 x194
       + 108041 x195 + 91122 x196 + 93923 x197 + 101246 x198 + 102557 x199
       + 91329 x200 + 92492 x201 + 108980 x202 + 90684 x203 + 108594 x204
       + 108326 x205 + 105313 x206 + 91837 x207 + 109279 x208 + 103865 x209
       + 90291 x210 + 104421 x211 + 94105 x212 + 104565 x213 + 94074 x214
       + 108246 x215 + 107939 x216 + 93704 x217 + 101847 x218 + 108907 x219
       + 99843 x220 + 108069 x221 + 95433 x222 + 93618 x223 + 105678 x224
       + 103066 x225 + 91510 x226 + 108784 x227 + 99616 x228 + 104422 x229
       + 90661 x230 + 91018 x231 + 100631 x232 + 102884 x233 + 101566 x234
       + 105368 x235 + 105370 x236 + 98192 x237 + 90252 x238 + 107181 x239
       + 109776 x240 + 98381 x241 + 97187 x242 + 109177 x243 + 104632 x244
       + 102435 x245 + 94440 x246 + 90095 x247 + 93131 x248 + 95849 x249
       + 95983 x250 + 93490 x251 + 98557 x252 + 91378 x253 + 103495 x254
       + 95308 x255 + 102221 x256 + 98581 x257 + 97558 x258 + 95229 x259
       + 98517 x260 + 109764 x261 + 101848 x262 + 94689 x263 + 98525 x264
       + 90479 x265 + 96836 x266 + 97580 x267 + 100065 x268 + 107094 x269
       + 96170 x270 + 97494 x271 + 92860 x272 + 105519 x273 + 94997 x274
       + 97242 x275 + 96370 x276 + 102404 x277 + 106263 x278 + 103923 x279
       + 97414 x280 + 102944 x281 + 98358 x282 + 95958 x283 + 104891 x284
       + 97876 x285 + 95477 x286 + 107268 x287 + 109675 x288 + 96358 x289
       + 100675 x290 + 98160 x291 + 109219 x292 + 101094 x293 + 90840 x294
       + 102543 x295 + 108438 x296 + 107437 x297 + 92669 x298 + 96680 x299
       + 101125 x300 + 109435 x301 + 99944 x302 + 107633 x303 + 93483 x304
       + 92930 x305 + 92673 x306 + 90754 x307 + 95143 x308 + 93196 x309
       + 94773 x310 + 96917 x311 + 107371 x312 + 95244 x313 + 103405 x314
       + 106187 x315 + 103265 x316 + 102696 x317 + 91703 x318 + 94145 x319
       + 105621 x320 + 100173 x321 + 92814 x322 + 108920 x323 + 108668 x324
       + 93385 x325 + 108577 x326 + 91981 x327 + 101496 x328 + 95058 x329
       + 95667 x330 + 108623 x331 + 102308 x332 + 103164 x333 + 93615 x334
       + 100273 x335 + 104591 x336 + 96836 x337 + 96328 x338 + 107423 x339
       + 103751 x340 + 94893 x341 + 91544 x342 + 99395 x343 + 95969 x344
       + 102094 x345 + 101140 x346 + 105107 x347 + 99743 x348 + 109014 x349
       + 109273 x350 + 107640 x351 + 105030 x352 + 92895 x353 + 105055 x354
       + 104644 x355 + 104873 x356 + 108846 x357 + 91789 x358 + 106459 x359
       + 90080 x360 + 108778 x361 + 106164 x362 + 104010 x363 + 92399 x364
       + 109541 x365 + 97741 x366 + 103326 x367 + 108095 x368 + 99351 x369
       + 99604 x370 + 99263 x371 + 109562 x372 + 95757 x373 + 93101 x374
       + 109063 x375 + 109664 x376 + 96389 x377 + 103499 x378 + 100116 x379
       + 101401 x380 + 108364 x381 + 109949 x382 + 91003 x383 + 92956 x384
       + 95159 x385 + 109713 x386 + 102256 x387 + 105706 x388 + 109151 x389
       + 92626 x390 + 109989 x391 + 93998 x392 + 104305 x393 + 90048 x394
       + 97120 x395 + 101576 x396 + 105385 x397 + 91513 x398 + 104107 x399
       + 96311 x400 + 107575 x401 + 91813 x402 + 93974 x403 + 102236 x404
       + 93552 x405 + 101443 x406 + 104824 x407 + 95881 x408 + 103812 x409
       + 104119 x410 + 107160 x411 + 92507 x412 + 100456 x413 + 96527 x414
       + 93009 x415 + 97090 x416 + 104652 x417 + 97492 x418 + 99194 x419
       + 94764 x420 + 105911 x421 + 94398 x422 + 104377 x423 + 95430 x424
       + 92214 x425 + 98060 x426 + 104317 x427 + 108212 x428 + 91717 x429
       + 101520 x430 + 93101 x431 + 90997 x432 + 103309 x433 + 101034 x434
       + 101142 x435 + 105607 x436 + 94017 x437 + 96216 x438 + 92892 x439
       + 95699 x440 + 106141 x441 + 92295 x442 + 107035 x443 + 103704 x444
       + 95457 x445 + 93520 x446 + 92515 x447 + 107586 x448 + 96629 x449
       + 91231 x450 + 104181 x451 + 90858 x452 + 107406 x453 + 106377 x454
       + 100119 x455 + 90914 x456 + 109340 x457 + 98185 x458 + 101695 x459
       + 107892 x460 + 99465 x461 + 98161 x462 + 96853 x463 + 99168 x464
       + 94763 x465 + 91796 x466 + 107405 x467 + 92991 x468 + 109216 x469
       + 109077 x470 + 101850 x471 + 108880 x472 + 91866 x473 + 99328 x474
       + 96673 x475 + 92112 x476 + 93544 x477 + 95906 x478 + 91145 x479
       + 94928 x480 + 108100 x481 + 107871 x482 + 109545 x483 + 98106 x484
       + 103019 x485 + 97369 x486 + 101861 x487 + 102649 x488 + 106721 x489
       + 104602 x490 + 99788 x491 + 107960 x492 + 100074 x493 + 104690 x494
       + 103398 x495 + 101947 x496 + 102813 x497 + 107144 x498 + 101821 x499
       + 103990 x500 + 108199 x501 + 104892 x502 + 104762 x503 + 98016 x504
       + 94762 x505 + 100808 x506 + 103852 x507 + 107981 x508 + 92960 x509
       + 90663 x510 + 102640 x511 + 107353 x512 + 100496 x513 + 106917 x514
       + 100366 x515 + 102491 x516 + 101655 x517 + 103872 x518 + 96475 x519
       + 98725 x520 + 93212 x521 + 91465 x522 + 100425 x523 + 107533 x524
       + 92293 x525 + 102312 x526 + 104415 x527 + 103329 x528 + 100035 x529
       + 104644 x530 + 105494 x531 + 109236 x532 + 98978 x533 + 92343 x534
       + 107865 x535 + 102599 x536 + 91805 x537 + 92568 x538 + 96220 x539
       + 103069 x540 + 98746 x541 + 97205 x542 + 107524 x543 + 92640 x544
       + 99205 x545 + 95184 x546 + 108345 x547 + 91499 x548 + 98091 x549
       + 99431 x550 + 108079 x551 + 97258 x552 + 102604 x553 + 100634 x554
       + 98000 x555 + 106487 x556 + 102286 x557 + 98603 x558 + 105370 x559
       + 95446 x560 + 105390 x561 + 100864 x562 + 104529 x563 + 97262 x564
       + 107496 x565 + 108122 x566 + 96901 x567 + 92625 x568 + 94106 x569
       + 94724 x570 + 101643 x571 + 108130 x572 + 96620 x573 + 98177 x574
       + 94185 x575 + 92682 x576 + 99414 x577 + 103407 x578 + 95978 x579
       + 94289 x580 + 94622 x581 + 104605 x582 + 95550 x583 + 107059 x584
       + 100837 x585 + 90373 x586 + 108295 x587 + 101374 x588 + 102063 x589
       + 106312 x590 + 100440 x591 + 108997 x592 + 104096 x593 + 103308 x594
       + 91216 x595 + 109241 x596 + 106904 x597 + 99442 x598 + 106539 x599
       + 23110 x600 + 40023 x601 + 42329 x602 + 37901 x603 + 41898 x604
       + 37798 x605 + 42047 x606 + 41651 x607 + 38897 x608 + 38272 x609
       + 38712 x610 + 42327 x611 + 39722 x612 + 43052 x613 + 43695 x614
       + 43543 x615 + 39099 x616 + 40640 x617 + 39922 x618 + 36428 x619
       + 43333 x620 + 41774 x621 + 36117 x622 + 39399 x623 + 42260 x624
       + 38154 x625 + 37669 x626 + 43325 x627 + 39541 x628 + 36278 x629
       + 43621 x630 + 39052 x631 + 42024 x632 + 36777 x633 + 36410 x634
       + 40321 x635 + 36394 x636 + 41121 x637 + 42891 x638 + 39946 x639
       + 39623 x640 + 39736 x641 + 39792 x642 + 38677 x643 + 42706 x644
       + 36533 x645 + 42131 x646 + 40484 x647 + 42955 x648 + 38534 x649
       + 37276 x650 + 39110 x651 + 42600 x652 + 41728 x653 + 38188 x654
       + 40500 x655 + 40741 x656 + 39503 x657 + 43037 x658 + 42337 x659
       + 29446 x660
Subject To
 c1:   x4 - x25 + x30 - x37 - x39 - x48 + x49  = 0
 c2:   x64 - x85 + x90 - x97 - x99 - x108 + x109  = 0
 c3:   x124 - x145 + x150 - x157 - x159 - x168 + x169  = 0
 c4:   x184 - x205 + x210 - x217 - x219 - x228 + x229  = 0
 c5:   x244 - x265 + x270 - x277 - x279 - x288 + x289  = 0
 c6:   x304 - x325 + x330 - x337 - x339 - x348 + x349  = 0
 c7:   x364 - x385 + x390 - x397 - x399 - x408 + x409  = 0
 c8:   x424 - x445 + x450 - x457 - x459 - x468 + x469  = 0
 c9:   x484 - x505 + x510 - x517 - x519 - x528 + x529  = 0
 c10:  x544 - x565 + x570 - x577 - x579 - x588 + x589  = 1
 c11:  x1 - x2 - x7 - x10 - x15 + x17 + x20 + x26 - x28  = 0
 c12:  x61 - x62 - x67 - x70 - x75 + x77 + x80 + x86 - x88  = 0
 c13:  x121 - x122 - x127 - x130 - x135 + x137 + x140 + x146 - x148  = 0
 c14:  x181 - x182 - x187 - x190 - x195 + x197 + x200 + x206 - x208  = 0
 c15:  x241 - x242 - x247 - x250 - x255 + x257 + x260 + x266 - x268  = 0
 c16:  x301 - x302 - x307 - x310 - x315 + x317 + x320 + x326 - x328  = 0
 c17:  x361 - x362 - x367 - x370 - x375 + x377 + x380 + x386 - x388  = 0
 c18:  x421 - x422 - x427 - x430 - x435 + x437 + x440 + x446 - x448  = 0
 c19:  x481 - x482 - x487 - x490 - x495 + x497 + x500 + x506 - x508  = 0
 c20:  x541 - x542 - x547 - x550 - x555 + x557 + x560 + x566 - x568  = 0
 c21:  - x5 - x6 + x11 - x12 + x23 + x31 + x36 - x43 - x57  = 0
 c22:  - x65 - x66 + x71 - x72 + x83 + x91 + x96 - x103 - x117  = -1
 c23:  - x125 - x126 + x131 - x132 + x143 + x151 + x156 - x163 - x177  = 0
 c24:  - x185 - x186 + x191 - x192 + x203 + x211 + x216 - x223 - x237  = 0
 c25:  - x245 - x246 + x251 - x252 + x263 + x271 + x276 - x283 - x297  = 0
 c26:  - x305 - x306 + x311 - x312 + x323 + x331 + x336 - x343 - x357  = 0
 c27:  - x365 - x366 + x371 - x372 + x383 + x391 + x396 - x403 - x417  = 0
 c28:  - x425 - x426 + x431 - x432 + x443 + x451 + x456 - x463 - x477  = 0
 c29:  - x485 - x486 + x491 - x492 + x503 + x511 + x516 - x523 - x537  = 0
 c30:  - x545 - x546 + x551 - x552 + x563 + x571 + x576 - x583 - x597  = 0
 c31:  - x16 - x24 - x32 - x34 + x46 + x55  = 1
 c32:  - x76 - x84 - x92 - x94 + x106 + x115  = 1
 c33:  - x136 - x144 - x152 - x154 + x166 + x175  = 0
 c34:  - x196 - x204 - x212 - x214 + x226 + x235  = 0
 c35:  - x256 - x264 - x272 - x274 + x286 + x295  = 0
 c36:  - x316 - x324 - x332 - x334 + x346 + x355  = 0
 c37:  - x376 - x384 - x392 - x394 + x406 + x415  = 0
 c38:  - x436 - x444 - x452 - x454 + x466 + x475  = 0
 c39:  - x496 - x504 - x512 - x514 + x526 + x535  = 0
 c40:  - x556 - x564 - x572 - x574 + x586 + x595  = 0
 c41:  - x1 - x3 - x27 - x50 + x59  = 0
 c42:  - x61 - x63 - x87 - x110 + x119  = 0
 c43:  - x121 - x123 - x147 - x170 + x179  = 0
 c44:  - x181 - x183 - x207 - x230 + x239  = 0
 c45:  - x241 - x243 - x267 - x290 + x299  = 0
 c46:  - x301 - x303 - x327 - x350 + x359  = 0
 c47:  - x361 - x363 - x387 - x410 + x419  = 0
 c48:  - x421 - x423 - x447 - x470 + x479  = 0
 c49:  - x481 - x483 - x507 - x530 + x539  = 0
 c50:  - x541 - x543 - x567 - x590 + x599  = 0
 c51:  x12 + x22 + x24 - x26 + x27 + x29 + x44 - x56 - x59  = 0
 c52:  x72 + x82 + x84 - x86 + x87 + x89 + x104 - x116 - x119  = 0
 c53:  x132 + x142 + x144 - x146 + x147 + x149 + x164 - x176 - x179  = 0
 c54:  x192 + x202 + x204 - x206 + x207 + x209 + x224 - x236 - x239  = 0
 c55:  x252 + x262 + x264 - x266 + x267 + x269 + x284 - x296 - x299  = 0
 c56:  x312 + x322 + x324 - x326 + x327 + x329 + x344 - x356 - x359  = 0
 c57:  x372 + x382 + x384 - x386 + x387 + x389 + x404 - x416 - x419  = 0
 c58:  x432 + x442 + x444 - x446 + x447 + x449 + x464 - x476 - x479  = 0
 c59:  x492 + x502 + x504 - x506 + x507 + x509 + x524 - x536 - x539  = 0
 c60:  x552 + x562 + x564 - x566 + x567 + x569 + x584 - x596 - x599  = 0
 c61:  x3 + x7 - x9 + x21 - x23 + x39 - x40 + x43 - x53 + x56  = 0
 c62:  x63 + x67 - x69 + x81 - x83 + x99 - x100 + x103 - x113 + x116  = 0
 c63:  x123 + x127 - x129 + x141 - x143 + x159 - x160 + x163 - x173 + x176  = 0
 c64:  x183 + x187 - x189 + x201 - x203 + x219 - x220 + x223 - x233 + x236  = 0
 c65:  x243 + x247 - x249 + x261 - x263 + x279 - x280 + x283 - x293 + x296  = 0
 c66:  x303 + x307 - x309 + x321 - x323 + x339 - x340 + x343 - x353 + x356  = 1
 c67:  x363 + x367 - x369 + x381 - x383 + x399 - x400 + x403 - x413 + x416  = 0
 c68:  x423 + x427 - x429 + x441 - x443 + x459 - x460 + x463 - x473 + x476  = 0
 c69:  x483 + x487 - x489 + x501 - x503 + x519 - x520 + x523 - x533 + x536  = 0
 c70:  x543 + x547 - x549 + x561 - x563 + x579 - x580 + x583 - x593 + x596  = 0
 c71:  - x4 - x11 - x13 - x14 + x15 + x35 - x41 - x45 + x53  = 0
 c72:  - x64 - x71 - x73 - x74 + x75 + x95 - x101 - x105 + x113  = 0
 c73:  - x124 - x131 - x133 - x134 + x135 + x155 - x161 - x165 + x173  = -1
 c74:  - x184 - x191 - x193 - x194 + x195 + x215 - x221 - x225 + x233  = 0
 c75:  - x244 - x251 - x253 - x254 + x255 + x275 - x281 - x285 + x293  = 0
 c76:  - x304 - x311 - x313 - x314 + x315 + x335 - x341 - x345 + x353  = 0
 c77:  - x364 - x371 - x373 - x374 + x375 + x395 - x401 - x405 + x413  = 0
 c78:  - x424 - x431 - x433 - x434 + x435 + x455 - x461 - x465 + x473  = 0
 c79:  - x484 - x491 - x493 - x494 + x495 + x515 - x521 - x525 + x533  = 0
 c80:  - x544 - x551 - x553 - x554 + x555 + x575 - x581 - x585 + x593  = 0
 c81:  x37 - x42 - x44 - x47 + x54  = 0
 c82:  x97 - x102 - x104 - x107 + x114  = 0
 c83:  x157 - x162 - x164 - x167 + x174  = 0
 c84:  x217 - x222 - x224 - x227 + x234  = 0
 c85:  x277 - x282 - x284 - x287 + x294  = 0
 c86:  x337 - x342 - x344 - x347 + x354  = 0
 c87:  x397 - x402 - x404 - x407 + x414  = 0
 c88:  x457 - x462 - x464 - x467 + x474  = 0
 c89:  x517 - x522 - x524 - x527 + x534  = 1
 c90:  x577 - x582 - x584 - x587 + x594  = 0
 c91:  x5 + x14 - x18 - x19 + x28 - x30 + x34 - x35 + x38 + x60  = -1
 c92:  x65 + x74 - x78 - x79 + x88 - x90 + x94 - x95 + x98 + x120  = 0
 c93:  x125 + x134 - x138 - x139 + x148 - x150 + x154 - x155 + x158 + x180  = 0
 c94:  x185 + x194 - x198 - x199 + x208 - x210 + x214 - x215 + x218 + x240
        = -1
 c95:  x245 + x254 - x258 - x259 + x268 - x270 + x274 - x275 + x278 + x300  = 0
 c96:  x305 + x314 - x318 - x319 + x328 - x330 + x334 - x335 + x338 + x360  = 0
 c97:  x365 + x374 - x378 - x379 + x388 - x390 + x394 - x395 + x398 + x420  = 0
 c98:  x425 + x434 - x438 - x439 + x448 - x450 + x454 - x455 + x458 + x480  = 0
 c99:  x485 + x494 - x498 - x499 + x508 - x510 + x514 - x515 + x518 + x540
        = -1
 c100: x545 + x554 - x558 - x559 + x568 - x570 + x574 - x575 + x578 + x600  = 0
 c101: x8 + x16 - x17 - x22 - x38 - x46 - x51  = 0
 c102: x68 + x76 - x77 - x82 - x98 - x106 - x111  = 0
 c103: x128 + x136 - x137 - x142 - x158 - x166 - x171  = 0
 c104: x188 + x196 - x197 - x202 - x218 - x226 - x231  = 0
 c105: x248 + x256 - x257 - x262 - x278 - x286 - x291  = 0
 c106: x308 + x316 - x317 - x322 - x338 - x346 - x351  = 0
 c107: x368 + x376 - x377 - x382 - x398 - x406 - x411  = -1
 c108: x428 + x436 - x437 - x442 - x458 - x466 - x471  = 0
 c109: x488 + x496 - x497 - x502 - x518 - x526 - x531  = 0
 c110: x548 + x556 - x557 - x562 - x578 - x586 - x591  = 0
 c111: x10 + x13 + x25 - x31 + x33 + x58  = 0
 c112: x70 + x73 + x85 - x91 + x93 + x118  = 0
 c113: x130 + x133 + x145 - x151 + x153 + x178  = 0
 c114: x190 + x193 + x205 - x211 + x213 + x238  = 0
 c115: x250 + x253 + x265 - x271 + x273 + x298  = 1
 c116: x310 + x313 + x325 - x331 + x333 + x358  = 0
 c117: x370 + x373 + x385 - x391 + x393 + x418  = 1
 c118: x430 + x433 + x445 - x451 + x453 + x478  = 0
 c119: x490 + x493 + x505 - x511 + x513 + x538  = 0
 c120: x550 + x553 + x565 - x571 + x573 + x598  = 0
 c121: x2 + x18 - x29 - x36 + x40 + x41 + x47 - x49 + x50 + x52 - x54 - x55
       - x58  = 0
 c122: x62 + x78 - x89 - x96 + x100 + x101 + x107 - x109 + x110 + x112 - x114
       - x115 - x118  = 0
 c123: x122 + x138 - x149 - x156 + x160 + x161 + x167 - x169 + x170 + x172
       - x174 - x175 - x178  = 0
 c124: x182 + x198 - x209 - x216 + x220 + x221 + x227 - x229 + x230 + x232
       - x234 - x235 - x238  = 0
 c125: x242 + x258 - x269 - x276 + x280 + x281 + x287 - x289 + x290 + x292
       - x294 - x295 - x298  = 0
 c126: x302 + x318 - x329 - x336 + x340 + x341 + x347 - x349 + x350 + x352
       - x354 - x355 - x358  = -1
 c127: x362 + x378 - x389 - x396 + x400 + x401 + x407 - x409 + x410 + x412
       - x414 - x415 - x418  = 0
 c128: x422 + x438 - x449 - x456 + x460 + x461 + x467 - x469 + x470 + x472
       - x474 - x475 - x478  = 1
 c129: x482 + x498 - x509 - x516 + x520 + x521 + x527 - x529 + x530 + x532
       - x534 - x535 - x538  = 0
 c130: x542 + x558 - x569 - x576 + x580 + x581 + x587 - x589 + x590 + x592
       - x594 - x595 - x598  = -1
 c131: - x8 + x19 - x21 + x32 + x42 + x45 + x48 - x52 + x57  = 0
 c132: - x68 + x79 - x81 + x92 + x102 + x105 + x108 - x112 + x117  = 0
 c133: - x128 + x139 - x141 + x152 + x162 + x165 + x168 - x172 + x177  = 0
 c134: - x188 + x199 - x201 + x212 + x222 + x225 + x228 - x232 + x237  = 0
 c135: - x248 + x259 - x261 + x272 + x282 + x285 + x288 - x292 + x297  = -1
 c136: - x308 + x319 - x321 + x332 + x342 + x345 + x348 - x352 + x357  = 0
 c137: - x368 + x379 - x381 + x392 + x402 + x405 + x408 - x412 + x417  = 0
 c138: - x428 + x439 - x441 + x452 + x462 + x465 + x468 - x472 + x477  = -1
 c139: - x488 + x499 - x501 + x512 + x522 + x525 + x528 - x532 + x537  = 0
 c140: - x548 + x559 - x561 + x572 + x582 + x585 + x588 - x592 + x597  = 0
 c141: x6 + x9 - x20 - x33 + x51 - x60  = 0
 c142: x66 + x69 - x80 - x93 + x111 - x120  = 0
 c143: x126 + x129 - x140 - x153 + x171 - x180  = 1
 c144: x186 + x189 - x200 - x213 + x231 - x240  = 1
 c145: x246 + x249 - x260 - x273 + x291 - x300  = 0
 c146: x306 + x309 - x320 - x333 + x351 - x360  = 0
 c147: x366 + x369 - x380 - x393 + x411 - x420  = 0
 c148: x426 + x429 - x440 - x453 + x471 - x480  = 0
 c149: x486 + x489 - x500 - x513 + x531 - x540  = 0
 c150: x546 + x549 - x560 - x573 + x591 - x600  = 0
 c151: 4 x1 + 4 x61 + 4 x121 + 4 x181 + 4 x241 + 4 x301 + 4 x361 + 4 x421
       + 4 x481 + 4 x541 - 19 x601 <= 0
 c152: 4 x2 + 4 x62 + 4 x122 + 4 x182 + 4 x242 + 4 x302 + 4 x362 + 4 x422
       + 4 x482 + 4 x542 - 20 x602 <= 0
 c153: 4 x3 + 4 x63 + 4 x123 + 4 x183 + 4 x243 + 4 x303 + 4 x363 + 4 x423
       + 4 x483 + 4 x543 - 20 x603 <= 0
 c154: 4 x4 + 4 x64 + 4 x124 + 4 x184 + 4 x244 + 4 x304 + 4 x364 + 4 x424
       + 4 x484 + 4 x544 - 21 x604 <= 0
 c155: 4 x5 + 4 x65 + 4 x125 + 4 x185 + 4 x245 + 4 x305 + 4 x365 + 4 x425
       + 4 x485 + 4 x545 - 20 x605 <= 0
 c156: 4 x6 + 4 x66 + 4 x126 + 4 x186 + 4 x246 + 4 x306 + 4 x366 + 4 x426
       + 4 x486 + 4 x546 - 19 x606 <= 0
 c157: 4 x7 + 4 x67 + 4 x127 + 4 x187 + 4 x247 + 4 x307 + 4 x367 + 4 x427
       + 4 x487 + 4 x547 - 21 x607 <= 0
 c158: 4 x8 + 4 x68 + 4 x128 + 4 x188 + 4 x248 + 4 x308 + 4 x368 + 4 x428
       + 4 x488 + 4 x548 - 20 x608 <= 0
 c159: 4 x9 + 4 x69 + 4 x129 + 4 x189 + 4 x249 + 4 x309 + 4 x369 + 4 x429
       + 4 x489 + 4 x549 - 20 x609 <= 0
 c160: 4 x10 + 4 x70 + 4 x130 + 4 x190 + 4 x250 + 4 x310 + 4 x370 + 4 x430
       + 4 x490 + 4 x550 - 19 x610 <= 0
 c161: 4 x11 + 4 x71 + 4 x131 + 4 x191 + 4 x251 + 4 x311 + 4 x371 + 4 x431
       + 4 x491 + 4 x551 - 19 x611 <= 0
 c162: 4 x12 + 4 x72 + 4 x132 + 4 x192 + 4 x252 + 4 x312 + 4 x372 + 4 x432
       + 4 x492 + 4 x552 - 18 x612 <= 0
 c163: 4 x13 + 4 x73 + 4 x133 + 4 x193 + 4 x253 + 4 x313 + 4 x373 + 4 x433
       + 4 x493 + 4 x553 - 21 x613 <= 0
 c164: 4 x14 + 4 x74 + 4 x134 + 4 x194 + 4 x254 + 4 x314 + 4 x374 + 4 x434
       + 4 x494 + 4 x554 - 22 x614 <= 0
 c165: 4 x15 + 4 x75 + 4 x135 + 4 x195 + 4 x255 + 4 x315 + 4 x375 + 4 x435
       + 4 x495 + 4 x555 - 20 x615 <= 0
 c166: 4 x16 + 4 x76 + 4 x136 + 4 x196 + 4 x256 + 4 x316 + 4 x376 + 4 x436
       + 4 x496 + 4 x556 - 22 x616 <= 0
 c167: 4 x17 + 4 x77 + 4 x137 + 4 x197 + 4 x257 + 4 x317 + 4 x377 + 4 x437
       + 4 x497 + 4 x557 - 20 x617 <= 0
 c168: 4 x18 + 4 x78 + 4 x138 + 4 x198 + 4 x258 + 4 x318 + 4 x378 + 4 x438
       + 4 x498 + 4 x558 - 20 x618 <= 0
 c169: 4 x19 + 4 x79 + 4 x139 + 4 x199 + 4 x259 + 4 x319 + 4 x379 + 4 x439
       + 4 x499 + 4 x559 - 22 x619 <= 0
 c170: 4 x20 + 4 x80 + 4 x140 + 4 x200 + 4 x260 + 4 x320 + 4 x380 + 4 x440
       + 4 x500 + 4 x560 - 22 x620 <= 0
 c171: 4 x21 + 4 x81 + 4 x141 + 4 x201 + 4 x261 + 4 x321 + 4 x381 + 4 x441
       + 4 x501 + 4 x561 - 21 x621 <= 0
 c172: 4 x22 + 4 x82 + 4 x142 + 4 x202 + 4 x262 + 4 x322 + 4 x382 + 4 x442
       + 4 x502 + 4 x562 - 22 x622 <= 0
 c173: 4 x23 + 4 x83 + 4 x143 + 4 x203 + 4 x263 + 4 x323 + 4 x383 + 4 x443
       + 4 x503 + 4 x563 - 18 x623 <= 0
 c174: 4 x24 + 4 x84 + 4 x144 + 4 x204 + 4 x264 + 4 x324 + 4 x384 + 4 x444
       + 4 x504 + 4 x564 - 18 x624 <= 0
 c175: 4 x25 + 4 x85 + 4 x145 + 4 x205 + 4 x265 + 4 x325 + 4 x385 + 4 x445
       + 4 x505 + 4 x565 - 22 x625 <= 0
 c176: 4 x26 + 4 x86 + 4 x146 + 4 x206 + 4 x266 + 4 x326 + 4 x386 + 4 x446
       + 4 x506 + 4 x566 - 20 x626 <= 0
 c177: 4 x27 + 4 x87 + 4 x147 + 4 x207 + 4 x267 + 4 x327 + 4 x387 + 4 x447
       + 4 x507 + 4 x567 - 19 x627 <= 0
 c178: 4 x28 + 4 x88 + 4 x148 + 4 x208 + 4 x268 + 4 x328 + 4 x388 + 4 x448
       + 4 x508 + 4 x568 - 22 x628 <= 0
 c179: 4 x29 + 4 x89 + 4 x149 + 4 x209 + 4 x269 + 4 x329 + 4 x389 + 4 x449
       + 4 x509 + 4 x569 - 21 x629 <= 0
 c180: 4 x30 + 4 x90 + 4 x150 + 4 x210 + 4 x270 + 4 x330 + 4 x390 + 4 x450
       + 4 x510 + 4 x570 - 18 x630 <= 0
 c181: 4 x31 + 4 x91 + 4 x151 + 4 x211 + 4 x271 + 4 x331 + 4 x391 + 4 x451
       + 4 x511 + 4 x571 - 21 x631 <= 0
 c182: 4 x32 + 4 x92 + 4 x152 + 4 x212 + 4 x272 + 4 x332 + 4 x392 + 4 x452
       + 4 x512 + 4 x572 - 21 x632 <= 0
 c183: 4 x33 + 4 x93 + 4 x153 + 4 x213 + 4 x273 + 4 x333 + 4 x393 + 4 x453
       + 4 x513 + 4 x573 - 19 x633 <= 0
 c184: 4 x34 + 4 x94 + 4 x154 + 4 x214 + 4 x274 + 4 x334 + 4 x394 + 4 x454
       + 4 x514 + 4 x574 - 21 x634 <= 0
 c185: 4 x35 + 4 x95 + 4 x155 + 4 x215 + 4 x275 + 4 x335 + 4 x395 + 4 x455
       + 4 x515 + 4 x575 - 22 x635 <= 0
 c186: 4 x36 + 4 x96 + 4 x156 + 4 x216 + 4 x276 + 4 x336 + 4 x396 + 4 x456
       + 4 x516 + 4 x576 - 20 x636 <= 0
 c187: 4 x37 + 4 x97 + 4 x157 + 4 x217 + 4 x277 + 4 x337 + 4 x397 + 4 x457
       + 4 x517 + 4 x577 - 20 x637 <= 0
 c188: 4 x38 + 4 x98 + 4 x158 + 4 x218 + 4 x278 + 4 x338 + 4 x398 + 4 x458
       + 4 x518 + 4 x578 - 21 x638 <= 0
 c189: 4 x39 + 4 x99 + 4 x159 + 4 x219 + 4 x279 + 4 x339 + 4 x399 + 4 x459
       + 4 x519 + 4 x579 - 19 x639 <= 0
 c190: 4 x40 + 4 x100 + 4 x160 + 4 x220 + 4 x280 + 4 x340 + 4 x400 + 4 x460
       + 4 x520 + 4 x580 - 22 x640 <= 0
 c191: 4 x41 + 4 x101 + 4 x161 + 4 x221 + 4 x281 + 4 x341 + 4 x401 + 4 x461
       + 4 x521 + 4 x581 - 19 x641 <= 0
 c192: 4 x42 + 4 x102 + 4 x162 + 4 x222 + 4 x282 + 4 x342 + 4 x402 + 4 x462
       + 4 x522 + 4 x582 - 21 x642 <= 0
 c193: 4 x43 + 4 x103 + 4 x163 + 4 x223 + 4 x283 + 4 x343 + 4 x403 + 4 x463
       + 4 x523 + 4 x583 - 22 x643 <= 0
 c194: 4 x44 + 4 x104 + 4 x164 + 4 x224 + 4 x284 + 4 x344 + 4 x404 + 4 x464
       + 4 x524 + 4 x584 - 20 x644 <= 0
 c195: 4 x45 + 4 x105 + 4 x165 + 4 x225 + 4 x285 + 4 x345 + 4 x405 + 4 x465
       + 4 x525 + 4 x585 - 20 x645 <= 0
 c196: 4 x46 + 4 x106 + 4 x166 + 4 x226 + 4 x286 + 4 x346 + 4 x406 + 4 x466
       + 4 x526 + 4 x586 - 20 x646 <= 0
 c197: 4 x47 + 4 x107 + 4 x167 + 4 x227 + 4 x287 + 4 x347 + 4 x407 + 4 x467
       + 4 x527 + 4 x587 - 19 x647 <= 0
 c198: 4 x48 + 4 x108 + 4 x168 + 4 x228 + 4 x288 + 4 x348 + 4 x408 + 4 x468
       + 4 x528 + 4 x588 - 19 x648 <= 0
 c199: 4 x49 + 4 x109 + 4 x169 + 4 x229 + 4 x289 + 4 x349 + 4 x409 + 4 x469
       + 4 x529 + 4 x589 - 22 x649 <= 0
 c200: 4 x50 + 4 x110 + 4 x170 + 4 x230 + 4 x290 + 4 x350 + 4 x410 + 4 x470
       + 4 x530 + 4 x590 - 18 x650 <= 0
 c201: 4 x51 + 4 x111 + 4 x171 + 4 x231 + 4 x291 + 4 x351 + 4 x411 + 4 x471
       + 4 x531 + 4 x591 - 20 x651 <= 0
 c202: 4 x52 + 4 x112 + 4 x172 + 4 x232 + 4 x292 + 4 x352 + 4 x412 + 4 x472
       + 4 x532 + 4 x592 - 19 x652 <= 0
 c203: 4 x53 + 4 x113 + 4 x173 + 4 x233 + 4 x293 + 4 x353 + 4 x413 + 4 x473
       + 4 x533 + 4 x593 - 20 x653 <= 0
 c204: 4 x54 + 4 x114 + 4 x174 + 4 x234 + 4 x294 + 4 x354 + 4 x414 + 4 x474
       + 4 x534 + 4 x594 - 19 x654 <= 0
 c205: 4 x55 + 4 x115 + 4 x175 + 4 x235 + 4 x295 + 4 x355 + 4 x415 + 4 x475
       + 4 x535 + 4 x595 - 20 x655 <= 0
 c206: 4 x56 + 4 x116 + 4 x176 + 4 x236 + 4 x296 + 4 x356 + 4 x416 + 4 x476
       + 4 x536 + 4 x596 - 20 x656 <= 0
 c207: 4 x57 + 4 x117 + 4 x177 + 4 x237 + 4 x297 + 4 x357 + 4 x417 + 4 x477
       + 4 x537 + 4 x597 - 19 x657 <= 0
 c208: 4 x58 + 4 x118 + 4 x178 + 4 x238 + 4 x298 + 4 x358 + 4 x418 + 4 x478
       + 4 x538 + 4 x598 - 22 x658 <= 0
 c209: 4 x59 + 4 x119 + 4 x179 + 4 x239 + 4 x299 + 4 x359 + 4 x419 + 4 x479
       + 4 x539 + 4 x599 - 21 x659 <= 0
 c210: 4 x60 + 4 x120 + 4 x180 + 4 x240 + 4 x300 + 4 x360 + 4 x420 + 4 x480
       + 4 x540 + 4 x600 - 8 x660 <= 0
Bounds
 0 <= x1 <= 1
 0 <= x2 <= 1
 0 <= x3 <= 1
 0 <= x4 <= 1
 0 <= x5 <= 1
 0 <= x6 <= 1
 0 <= x7 <= 1
 0 <= x8 <= 1
 0 <= x9 <= 1
 0 <= x10 <= 1
 0 <= x11 <= 1
 0 <= x12 <= 1
 0 <= x13 <= 1
 0 <= x14 <= 1
 0 <= x15 <= 1
 0 <= x16 <= 1
 0 <= x17 <= 1
 0 <= x18 <= 1
 0 <= x19 <= 1
 0 <= x20 <= 1
 0 <= x21 <= 1
 0 <= x22 <= 1
 0 <= x23 <= 1
 0 <= x24 <= 1
 0 <= x25 <= 1
 0 <= x26 <= 1
 0 <= x27 <= 1
 0 <= x28 <= 1
 0 <= x29 <= 1
 0 <= x30 <= 1
 0 <= x31 <= 1
 0 <= x32 <= 1
 0 <= x33 <= 1
 0 <= x34 <= 1
 0 <= x35 <= 1
 0 <= x36 <= 1
 0 <= x37 <= 1
 0 <= x38 <= 1
 0 <= x39 <= 1
 0 <= x40 <= 1
 0 <= x41 <= 1
 0 <= x42 <= 1
 0 <= x43 <= 1
 0 <= x44 <= 1
 0 <= x45 <= 1
 0 <= x46 <= 1
 0 <= x47 <= 1
 0 <= x48 <= 1
 0 <= x49 <= 1
 0 <= x50 <= 1
 0 <= x51 <= 1
 0 <= x52 <= 1
 0 <= x53 <= 1
 0 <= x54 <= 1
 0 <= x55 <= 1
 0 <= x56 <= 1
 0 <= x57 <= 1
 0 <= x58 <= 1
 0 <= x59 <= 1
 0 <= x60 <= 1
 0 <= x61 <= 1
 0 <= x62 <= 1
 0 <= x63 <= 1
 0 <= x64 <= 1
 0 <= x65 <= 1
 0 <= x66 <= 1
 0 <= x67 <= 1
 0 <= x68 <= 1
 0 <= x69 <= 1
 0 <= x70 <= 1
 0 <= x71 <= 1
 0 <= x72 <= 1
 0 <= x73 <= 1
 0 <= x74 <= 1
 0 <= x75 <= 1
 0 <= x76 <= 1
 0 <= x77 <= 1
 0 <= x78 <= 1
 0 <= x79 <= 1
 0 <= x80 <= 1
 0 <= x81 <= 1
 0 <= x82 <= 1
 0 <= x83 <= 1
 0 <= x84 <= 1
 0 <= x85 <= 1
 0 <= x86 <= 1
 0 <= x87 <= 1
 0 <= x88 <= 1
 0 <= x89 <= 1
 0 <= x90 <= 1
 0 <= x91 <= 1
 0 <= x92 <= 1
 0 <= x93 <= 1
 0 <= x94 <= 1
 0 <= x95 <= 1
 0 <= x96 <= 1
 0 <= x97 <= 1
 0 <= x98 <= 1
 0 <= x99 <= 1
 0 <= x100 <= 1
 0 <= x101 <= 1
 0 <= x102 <= 1
 0 <= x103 <= 1
 0 <= x104 <= 1
 0 <= x105 <= 1
 0 <= x106 <= 1
 0 <= x107 <= 1
 0 <= x108 <= 1
 0 <= x109 <= 1
 0 <= x110 <= 1
 0 <= x111 <= 1
 0 <= x112 <= 1
 0 <= x113 <= 1
 0 <= x114 <= 1
 0 <= x115 <= 1
 0 <= x116 <= 1
 0 <= x117 <= 1
 0 <= x118 <= 1
 0 <= x119 <= 1
 0 <= x120 <= 1
 0 <= x121 <= 1
 0 <= x122 <= 1
 0 <= x123 <= 1
 0 <= x124 <= 1
 0 <= x125 <= 1
 0 <= x126 <= 1
 0 <= x127 <= 1
 0 <= x128 <= 1
 0 <= x129 <= 1
 0 <= x130 <= 1
 0 <= x131 <= 1
 0 <= x132 <= 1
 0 <= x133 <= 1
 0 <= x134 <= 1
 0 <= x135 <= 1
 0 <= x136 <= 1
 0 <= x137 <= 1
 0 <= x138 <= 1
 0 <= x139 <= 1
 0 <= x140 <= 1
 0 <= x141 <= 1
 0 <= x142 <= 1
 0 <= x143 <= 1
 0 <= x144 <= 1
 0 <= x145 <= 1
 0 <= x146 <= 1
 0 <= x147 <= 1
 0 <= x148 <= 1
 0 <= x149 <= 1
 0 <= x150 <= 1
 0 <= x151 <= 1
 0 <= x152 <= 1
 0 <= x153 <= 1
 0 <= x154 <= 1
 0 <= x155 <= 1
 0 <= x156 <= 1
 0 <= x157 <= 1
 0 <= x158 <= 1
 0 <= x159 <= 1
 0 <= x160 <= 1
 0 <= x161 <= 1
 0 <= x162 <= 1
 0 <= x163 <= 1
 0 <= x164 <= 1
 0 <= x165 <= 1
 0 <= x166 <= 1
 0 <= x167 <= 1
 0 <= x168 <= 1
 0 <= x169 <= 1
 0 <= x170 <= 1
 0 <= x171 <= 1
 0 <= x172 <= 1
 0 <= x173 <= 1
 0 <= x174 <= 1
 0 <= x175 <= 1
 0 <= x176 <= 1
 0 <= x177 <= 1
 0 <= x178 <= 1
 0 <= x179 <= 1
 0 <= x180 <= 1
 0 <= x181 <= 1
 0 <= x182 <= 1
 0 <= x183 <= 1
 0 <= x184 <= 1
 0 <= x185 <= 1
 0 <= x186 <= 1
 0 <= x187 <= 1
 0 <= x188 <= 1
 0 <= x189 <= 1
 0 <= x190 <= 1
 0 <= x191 <= 1
 0 <= x192 <= 1
 0 <= x193 <= 1
 0 <= x194 <= 1
 0 <= x195 <= 1
 0 <= x196 <= 1
 0 <= x197 <= 1
 0 <= x198 <= 1
 0 <= x199 <= 1
 0 <= x200 <= 1
 0 <= x201 <= 1
 0 <= x202 <= 1
 0 <= x203 <= 1
 0 <= x204 <= 1
 0 <= x205 <= 1
 0 <= x206 <= 1
 0 <= x207 <= 1
 0 <= x208 <= 1
 0 <= x209 <= 1
 0 <= x210 <= 1
 0 <= x211 <= 1
 0 <= x212 <= 1
 0 <= x213 <= 1
 0 <= x214 <= 1
 0 <= x215 <= 1
 0 <= x216 <= 1
 0 <= x217 <= 1
 0 <= x218 <= 1
 0 <= x219 <= 1
 0 <= x220 <= 1
 0 <= x221 <= 1
 0 <= x222 <= 1
 0 <= x223 <= 1
 0 <= x224 <= 1
 0 <= x225 <= 1
 0 <= x226 <= 1
 0 <= x227 <= 1
 0 <= x228 <= 1
 0 <= x229 <= 1
 0 <= x230 <= 1
 0 <= x231 <= 1
 0 <= x232 <= 1
 0 <= x233 <= 1
 0 <= x234 <= 1
 0 <= x235 <= 1
 0 <= x236 <= 1
 0 <= x237 <= 1
 0 <= x238 <= 1
 0 <= x239 <= 1
 0 <= x240 <= 1
 0 <= x241 <= 1
 0 <= x242 <= 1
 0 <= x243 <= 1
 0 <= x244 <= 1
 0 <= x245 <= 1
 0 <= x246 <= 1
 0 <= x247 <= 1
 0 <= x248 <= 1
 0 <= x249 <= 1
 0 <= x250 <= 1
 0 <= x251 <= 1
 0 <= x252 <= 1
 0 <= x253 <= 1
 0 <= x254 <= 1
 0 <= x255 <= 1
 0 <= x256 <= 1
 0 <= x257 <= 1
 0 <= x258 <= 1
 0 <= x259 <= 1
 0 <= x260 <= 1
 0 <= x261 <= 1
 0 <= x262 <= 1
 0 <= x263 <= 1
 0 <= x264 <= 1
 0 <= x265 <= 1
 0 <= x266 <= 1
 0 <= x267 <= 1
 0 <= x268 <= 1
 0 <= x269 <= 1
 0 <= x270 <= 1
 0 <= x271 <= 1
 0 <= x272 <= 1
 0 <= x273 <= 1
 0 <= x274 <= 1
 0 <= x275 <= 1
 0 <= x276 <= 1
 0 <= x277 <= 1
 0 <= x278 <= 1
 0 <= x279 <= 1
 0 <= x280 <= 1
 0 <= x281 <= 1
 0 <= x282 <= 1
 0 <= x283 <= 1
 0 <= x284 <= 1
 0 <= x285 <= 1
 0 <= x286 <= 1
 0 <= x287 <= 1
 0 <= x288 <= 1
 0 <= x289 <= 1
 0 <= x290 <= 1
 0 <= x291 <= 1
 0 <= x292 <= 1
 0 <= x293 <= 1
 0 <= x294 <= 1
 0 <= x295 <= 1
 0 <= x296 <= 1
 0 <= x297 <= 1
 0 <= x298 <= 1
 0 <= x299 <= 1
 0 <= x300 <= 1
 0 <= x301 <= 1
 0 <= x302 <= 1
 0 <= x303 <= 1
 0 <= x304 <= 1
 0 <= x305 <= 1
 0 <= x306 <= 1
 0 <= x307 <= 1
 0 <= x308 <= 1
 0 <= x309 <= 1
 0 <= x310 <= 1
 0 <= x311 <= 1
 0 <= x312 <= 1
 0 <= x313 <= 1
 0 <= x314 <= 1
 0 <= x315 <= 1
 0 <= x316 <= 1
 0 <= x317 <= 1
 0 <= x318 <= 1
 0 <= x319 <= 1
 0 <= x320 <= 1
 0 <= x321 <= 1
 0 <= x322 <= 1
 0 <= x323 <= 1
 0 <= x324 <= 1
 0 <= x325 <= 1
 0 <= x326 <= 1
 0 <= x327 <= 1
 0 <= x328 <= 1
 0 <= x329 <= 1
 0 <= x330 <= 1
 0 <= x331 <= 1
 0 <= x332 <= 1
 0 <= x333 <= 1
 0 <= x334 <= 1
 0 <= x335 <= 1
 0 <= x336 <= 1
 0 <= x337 <= 1
 0 <= x338 <= 1
 0 <= x339 <= 1
 0 <= x340 <= 1
 0 <= x341 <= 1
 0 <= x342 <= 1
 0 <= x343 <= 1
 0 <= x344 <= 1
 0 <= x345 <= 1
 0 <= x346 <= 1
 0 <= x347 <= 1
 0 <= x348 <= 1
 0 <= x349 <= 1
 0 <= x350 <= 1
 0 <= x351 <= 1
 0 <= x352 <= 1
 0 <= x353 <= 1
 0 <= x354 <= 1
 0 <= x355 <= 1
 0 <= x356 <= 1
 0 <= x357 <= 1
 0 <= x358 <= 1
 0 <= x359 <= 1
 0 <= x360 <= 1
 0 <= x361 <= 1
 0 <= x362 <= 1
 0 <= x363 <= 1
 0 <= x364 <= 1
 0 <= x365 <= 1
 0 <= x366 <= 1
 0 <= x367 <= 1
 0 <= x368 <= 1
 0 <= x369 <= 1
 0 <= x370 <= 1
 0 <= x371 <= 1
 0 <= x372 <= 1
 0 <= x373 <= 1
 0 <= x374 <= 1
 0 <= x375 <= 1
 0 <= x376 <= 1
 0 <= x377 <= 1
 0 <= x378 <= 1
 0 <= x379 <= 1
 0 <= x380 <= 1
 0 <= x381 <= 1
 0 <= x382 <= 1
 0 <= x383 <= 1
 0 <= x384 <= 1
 0 <= x385 <= 1
 0 <= x386 <= 1
 0 <= x387 <= 1
 0 <= x388 <= 1
 0 <= x389 <= 1
 0 <= x390 <= 1
 0 <= x391 <= 1
 0 <= x392 <= 1
 0 <= x393 <= 1
 0 <= x394 <= 1
 0 <= x395 <= 1
 0 <= x396 <= 1
 0 <= x397 <= 1
 0 <= x398 <= 1
 0 <= x399 <= 1
 0 <= x400 <= 1
 0 <= x401 <= 1
 0 <= x402 <= 1
 0 <= x403 <= 1
 0 <= x404 <= 1
 0 <= x405 <= 1
 0 <= x406 <= 1
 0 <= x407 <= 1
 0 <= x408 <= 1
 0 <= x409 <= 1
 0 <= x410 <= 1
 0 <= x411 <= 1
 0 <= x412 <= 1
 0 <= x413 <= 1
 0 <= x414 <= 1
 0 <= x415 <= 1
 0 <= x416 <= 1
 0 <= x417 <= 1
 0 <= x418 <= 1
 0 <= x419 <= 1
 0 <= x420 <= 1
 0 <= x421 <= 1
 0 <= x422 <= 1
 0 <= x423 <= 1
 0 <= x424 <= 1
 0 <= x425 <= 1
 0 <= x426 <= 1
 0 <= x427 <= 1
 0 <= x428 <= 1
 0 <= x429 <= 1
 0 <= x430 <= 1
 0 <= x431 <= 1
 0 <= x432 <= 1
 0 <= x433 <= 1
 0 <= x434 <= 1
 0 <= x435 <= 1
 0 <= x436 <= 1
 0 <= x437 <= 1
 0 <= x438 <= 1
 0 <= x439 <= 1
 0 <= x440 <= 1
 0 <= x441 <= 1
 0 <= x442 <= 1
 0 <= x443 <= 1
 0 <= x444 <= 1
 0 <= x445 <= 1
 0 <= x446 <= 1
 0 <= x447 <= 1
 0 <= x448 <= 1
 0 <= x449 <= 1
 0 <= x450 <= 1
 0 <= x451 <= 1
 0 <= x452 <= 1
 0 <= x453 <= 1
 0 <= x454 <= 1
 0 <= x455 <= 1
 0 <= x456 <= 1
 0 <= x457 <= 1
 0 <= x458 <= 1
 0 <= x459 <= 1
 0 <= x460 <= 1
 0 <= x461 <= 1
 0 <= x462 <= 1
 0 <= x463 <= 1
 0 <= x464 <= 1
 0 <= x465 <= 1
 0 <= x466 <= 1
 0 <= x467 <= 1
 0 <= x468 <= 1
 0 <= x469 <= 1
 0 <= x470 <= 1
 0 <= x471 <= 1
 0 <= x472 <= 1
 0 <= x473 <= 1
 0 <= x474 <= 1
 0 <= x475 <= 1
 0 <= x476 <= 1
 0 <= x477 <= 1
 0 <= x478 <= 1
 0 <= x479 <= 1
 0 <= x480 <= 1
 0 <= x481 <= 1
 0 <= x482 <= 1
 0 <= x483 <= 1
 0 <= x484 <= 1
 0 <= x485 <= 1
 0 <= x486 <= 1
 0 <= x487 <= 1
 0 <= x488 <= 1
 0 <= x489 <= 1
 0 <= x490 <= 1
 0 <= x491 <= 1
 0 <= x492 <= 1
 0 <= x493 <= 1
 0 <= x494 <= 1
 0 <= x495 <= 1
 0 <= x496 <= 1
 0 <= x497 <= 1
 0 <= x498 <= 1
 0 <= x499 <= 1
 0 <= x500 <= 1
 0 <= x501 <= 1
 0 <= x502 <= 1
 0 <= x503 <= 1
 0 <= x504 <= 1
 0 <= x505 <= 1
 0 <= x506 <= 1
 0 <= x507 <= 1
 0 <= x508 <= 1
 0 <= x509 <= 1
 0 <= x510 <= 1
 0 <= x511 <= 1
 0 <= x512 <= 1
 0 <= x513 <= 1
 0 <= x514 <= 1
 0 <= x515 <= 1
 0 <= x516 <= 1
 0 <= x517 <= 1
 0 <= x518 <= 1
 0 <= x519 <= 1
 0 <= x520 <= 1
 0 <= x521 <= 1
 0 <= x522 <= 1
 0 <= x523 <= 1
 0 <= x524 <= 1
 0 <= x525 <= 1
 0 <= x526 <= 1
 0 <= x527 <= 1
 0 <= x528 <= 1
 0 <= x529 <= 1
 0 <= x530 <= 1
 0 <= x531 <= 1
 0 <= x532 <= 1
 0 <= x533 <= 1
 0 <= x534 <= 1
 0 <= x535 <= 1
 0 <= x536 <= 1
 0 <= x537 <= 1
 0 <= x538 <= 1
 0 <= x539 <= 1
 0 <= x540 <= 1
 0 <= x541 <= 1
 0 <= x542 <= 1
 0 <= x543 <= 1
 0 <= x544 <= 1
 0 <= x545 <= 1
 0 <= x546 <= 1
 0 <= x547 <= 1
 0 <= x548 <= 1
 0 <= x549 <= 1
 0 <= x550 <= 1
 0 <= x551 <= 1
 0 <= x552 <= 1
 0 <= x553 <= 1
 0 <= x554 <= 1
 0 <= x555 <= 1
 0 <= x556 <= 1
 0 <= x557 <= 1
 0 <= x558 <= 1
 0 <= x559 <= 1
 0 <= x560 <= 1
 0 <= x561 <= 1
 0 <= x562 <= 1
 0 <= x563 <= 1
 0 <= x564 <= 1
 0 <= x565 <= 1
 0 <= x566 <= 1
 0 <= x567 <= 1
 0 <= x568 <= 1
 0 <= x569 <= 1
 0 <= x570 <= 1
 0 <= x571 <= 1
 0 <= x572 <= 1
 0 <= x573 <= 1
 0 <= x574 <= 1
 0 <= x575 <= 1
 0 <= x576 <= 1
 0 <= x577 <= 1
 0 <= x578 <= 1
 0 <= x579 <= 1
 0 <= x580 <= 1
 0 <= x581 <= 1
 0 <= x582 <= 1
 0 <= x583 <= 1
 0 <= x584 <= 1
 0 <= x585 <= 1
 0 <= x586 <= 1
 0 <= x587 <= 1
 0 <= x588 <= 1
 0 <= x589 <= 1
 0 <= x590 <= 1
 0 <= x591 <= 1
 0 <= x592 <= 1
 0 <= x593 <= 1
 0 <= x594 <= 1
 0 <= x595 <= 1
 0 <= x596 <= 1
 0 <= x597 <= 1
 0 <= x598 <= 1
 0 <= x599 <= 1
 0 <= x600 <= 1
 0 <= x601 <= 1
 0 <= x602 <= 1
 0 <= x603 <= 1
 0 <= x604 <= 1
 0 <= x605 <= 1
 0 <= x606 <= 1
 0 <= x607 <= 1
 0 <= x608 <= 1
 0 <= x609 <= 1
 0 <= x610 <= 1
 0 <= x611 <= 1
 0 <= x612 <= 1
 0 <= x613 <= 1
 0 <= x614 <= 1
 0 <= x615 <= 1
 0 <= x616 <= 1
 0 <= x617 <= 1
 0 <= x618 <= 1
 0 <= x619 <= 1
 0 <= x620 <= 1
 0 <= x621 <= 1
 0 <= x622 <= 1
 0 <= x623 <= 1
 0 <= x624 <= 1
 0 <= x625 <= 1
 0 <= x626 <= 1
 0 <= x627 <= 1
 0 <= x628 <= 1
 0 <= x629 <= 1
 0 <= x630 <= 1
 0 <= x631 <= 1
 0 <= x632 <= 1
 0 <= x633 <= 1
 0 <= x634 <= 1
 0 <= x635 <= 1
 0 <= x636 <= 1
 0 <= x637 <= 1
 0 <= x638 <= 1
 0 <= x639 <= 1
 0 <= x640 <= 1
 0 <= x641 <= 1
 0 <= x642 <= 1
 0 <= x643 <= 1
 0 <= x644 <= 1
 0 <= x645 <= 1
 0 <= x646 <= 1
 0 <= x647 <= 1
 0 <= x648 <= 1
 0 <= x649 <= 1
 0 <= x650 <= 1
 0 <= x651 <= 1
 0 <= x652 <= 1
 0 <= x653 <= 1
 0 <= x654 <= 1
 0 <= x655 <= 1
 0 <= x656 <= 1
 0 <= x657 <= 1
 0 <= x658 <= 1
 0 <= x659 <= 1
 0 <= x660 <= 1
Binaries
 x601  x602  x603  x604  x605  x606  x607  x608  x609  x610  x611  x612  x613 
 x614  x615  x616  x617  x618  x619  x620  x621  x622  x623  x624  x625  x626 
 x627  x628  x629  x630  x631  x632  x633  x634  x635  x636  x637  x638  x639 
 x640  x641  x642  x643  x644  x645  x646  x647  x648  x649  x650  x651  x652 
 x653  x654  x655  x656  x657  x658  x659  x660 
End
